(declare-const a Real)
(declare-const b Real)
(declare-const c Real)
(assert (= (+ a b c) 3))
(assert (> a 0))
(assert (> b 0))
(assert (> c 0))
(assert (not (<= (+ (* -2260992 a (pow c 4)) (* -2260992 b (pow a 4)) (* -2149248 c (pow b 4)) (* -753664 a (pow b 4)) (* -753664 b (pow c 4)) (* -688128 (pow a 2) (pow c 3)) (* -688128 (pow a 3) (pow b 2)) (* -641920 c (pow a 4)) (* 688128 (pow a 2) (pow b 3)) (* 688128 (pow b 2) (pow c 3)) (* 1867776 (pow a 3) (pow c 2)) (* 62208 c (pow a 2) (pow b 2)) (* 245760 c (pow b 3) (+ 1 (pow c 2))) (* 1835008 a b (pow c 3)) (* 2281984 a c (pow b 3)) (* 2281984 b c (pow a 3))) 0)))
(check-sat)
(get-model)
(exit)